\ENCODING=ISO-8859-1
\Problem name: 

Maximize
 obj1: 8 x0 + 11 x1 + 6 x2 + 3 x3
Subject To
 constraint: 5 x0 + 7 x1 + 4 x2 + 3 x3 <= 14
Bounds
 0 <= x0 <= 1
 0 <= x1 <= 1
 0 <= x2 <= 1
 0 <= x3 <= 1
Binaries
 x0  x1  x2  x3 
End
